c Optimal Cost: 7800
p wcnf 60 892 401
52 1 32 0
52 -1 -32 0
104 1 33 0
104 -1 -33 0
52 1 38 0
52 -1 -38 0
156 1 39 0
156 -1 -39 0
104 1 44 0
104 -1 -44 0
100 1 -47 0
100 -1 47 0
100 1 -48 0
100 -1 48 0
200 1 -49 0
200 -1 49 0
100 1 -50 0
100 -1 50 0
100 1 -51 0
100 -1 51 0
100 1 -53 0
100 -1 53 0
100 1 -56 0
100 -1 56 0
100 1 -58 0
100 -1 58 0
52 2 -32 0
52 -2 32 0
52 2 -33 0
52 -2 33 0
52 2 -35 0
52 -2 35 0
104 2 -36 0
104 -2 36 0
104 2 -37 0
104 -2 37 0
52 2 -38 0
52 -2 38 0
52 2 -40 0
52 -2 40 0
104 2 -43 0
104 -2 43 0
300 2 47 0
300 -2 -47 0
100 2 50 0
100 -2 -50 0
200 2 51 0
200 -2 -51 0
100 2 52 0
100 -2 -52 0
100 2 55 0
100 -2 -55 0
100 2 57 0
100 -2 -57 0
200 2 60 0
200 -2 -60 0
52 3 31 0
52 -3 -31 0
156 3 32 0
156 -3 -32 0
52 3 33 0
52 -3 -33 0
52 3 34 0
52 -3 -34 0
52 3 35 0
52 -3 -35 0
52 3 36 0
52 -3 -36 0
52 3 38 0
52 -3 -38 0
104 3 39 0
104 -3 -39 0
52 3 43 0
52 -3 -43 0
52 3 45 0
52 -3 -45 0
100 3 -47 0
100 -3 47 0
300 3 -49 0
300 -3 49 0
300 3 -50 0
300 -3 50 0
100 3 -51 0
100 -3 51 0
100 3 -53 0
100 -3 53 0
100 3 -56 0
100 -3 56 0
100 3 -57 0
100 -3 57 0
100 3 -58 0
100 -3 58 0
100 3 -59 0
100 -3 59 0
52 4 -31 0
52 -4 31 0
104 4 -33 0
104 -4 33 0
52 4 -34 0
52 -4 34 0
52 4 -37 0
52 -4 37 0
52 4 -39 0
52 -4 39 0
156 4 -40 0
156 -4 40 0
52 4 -41 0
52 -4 41 0
52 4 -42 0
52 -4 42 0
52 4 -43 0
52 -4 43 0
52 4 -45 0
52 -4 45 0
100 4 46 0
100 -4 -46 0
100 4 47 0
100 -4 -47 0
100 4 48 0
100 -4 -48 0
400 4 52 0
400 -4 -52 0
100 4 56 0
100 -4 -56 0
200 4 57 0
200 -4 -57 0
100 4 58 0
100 -4 -58 0
100 4 59 0
100 -4 -59 0
100 4 60 0
100 -4 -60 0
52 5 32 0
52 -5 -32 0
52 5 34 0
52 -5 -34 0
104 5 39 0
104 -5 -39 0
52 5 40 0
52 -5 -40 0
104 5 41 0
104 -5 -41 0
104 5 42 0
104 -5 -42 0
52 5 45 0
52 -5 -45 0
100 5 -46 0
100 -5 46 0
100 5 -47 0
100 -5 47 0
100 5 -48 0
100 -5 48 0
200 5 -52 0
200 -5 52 0
200 5 -53 0
200 -5 53 0
100 5 -54 0
100 -5 54 0
100 5 -56 0
100 -5 56 0
100 5 -58 0
100 -5 58 0
52 6 -32 0
52 -6 32 0
52 6 -37 0
52 -6 37 0
52 6 -39 0
52 -6 39 0
52 6 -40 0
52 -6 40 0
156 6 -41 0
156 -6 41 0
52 6 -42 0
52 -6 42 0
104 6 -45 0
104 -6 45 0
100 6 47 0
100 -6 -47 0
100 6 52 0
100 -6 -52 0
100 6 53 0
100 -6 -53 0
100 6 55 0
100 -6 -55 0
200 6 56 0
200 -6 -56 0
300 6 59 0
300 -6 -59 0
100 6 60 0
100 -6 -60 0
52 7 32 0
52 -7 -32 0
52 7 33 0
52 -7 -33 0
52 7 34 0
52 -7 -34 0
52 7 35 0
52 -7 -35 0
52 7 38 0
52 -7 -38 0
52 7 40 0
52 -7 -40 0
52 7 41 0
52 -7 -41 0
52 7 42 0
52 -7 -42 0
52 7 44 0
52 -7 -44 0
200 7 -46 0
200 -7 46 0
200 7 -48 0
200 -7 48 0
100 7 -50 0
100 -7 50 0
100 7 -53 0
100 -7 53 0
100 7 -54 0
100 -7 54 0
100 7 -55 0
100 -7 55 0
100 7 -58 0
100 -7 58 0
52 8 -31 0
52 -8 31 0
52 8 -32 0
52 -8 32 0
52 8 -35 0
52 -8 35 0
52 8 -36 0
52 -8 36 0
52 8 -39 0
52 -8 39 0
104 8 -42 0
104 -8 42 0
52 8 -44 0
52 -8 44 0
52 8 -45 0
52 -8 45 0
300 8 46 0
300 -8 -46 0
100 8 47 0
100 -8 -47 0
100 8 51 0
100 -8 -51 0
100 8 53 0
100 -8 -53 0
100 8 55 0
100 -8 -55 0
100 8 56 0
100 -8 -56 0
100 8 58 0
100 -8 -58 0
104 9 -35 0
104 -9 35 0
52 9 -36 0
52 -9 36 0
52 9 -37 0
52 -9 37 0
52 9 -38 0
52 -9 38 0
52 9 -41 0
52 -9 41 0
104 9 -43 0
104 -9 43 0
156 9 -44 0
156 -9 44 0
52 9 -45 0
52 -9 45 0
100 9 48 0
100 -9 -48 0
100 9 49 0
100 -9 -49 0
100 9 50 0
100 -9 -50 0
100 9 51 0
100 -9 -51 0
100 9 53 0
100 -9 -53 0
200 9 55 0
200 -9 -55 0
100 9 57 0
100 -9 -57 0
200 9 58 0
200 -9 -58 0
100 9 59 0
100 -9 -59 0
100 9 60 0
100 -9 -60 0
104 10 -31 0
104 -10 31 0
52 10 -32 0
52 -10 32 0
52 10 -33 0
52 -10 33 0
104 10 -40 0
104 -10 40 0
104 10 -41 0
104 -10 41 0
52 10 -42 0
52 -10 42 0
100 10 49 0
100 -10 -49 0
100 10 50 0
100 -10 -50 0
100 10 53 0
100 -10 -53 0
100 10 54 0
100 -10 -54 0
300 10 57 0
300 -10 -57 0
100 10 58 0
100 -10 -58 0
100 10 60 0
100 -10 -60 0
52 11 -32 0
52 -11 32 0
104 11 -33 0
104 -11 33 0
52 11 -34 0
52 -11 34 0
52 11 -36 0
52 -11 36 0
52 11 -37 0
52 -11 37 0
52 11 -38 0
52 -11 38 0
52 11 -40 0
52 -11 40 0
52 11 -41 0
52 -11 41 0
52 11 -43 0
52 -11 43 0
52 11 -44 0
52 -11 44 0
100 11 47 0
100 -11 -47 0
100 11 48 0
100 -11 -48 0
100 11 49 0
100 -11 -49 0
100 11 50 0
100 -11 -50 0
100 11 55 0
100 -11 -55 0
300 11 56 0
300 -11 -56 0
100 11 58 0
100 -11 -58 0
100 11 59 0
100 -11 -59 0
100 11 60 0
100 -11 -60 0
52 12 -31 0
52 -12 31 0
52 12 -33 0
52 -12 33 0
156 12 -36 0
156 -12 36 0
156 12 -37 0
156 -12 37 0
104 12 -41 0
104 -12 41 0
52 12 -42 0
52 -12 42 0
104 12 -44 0
104 -12 44 0
100 12 47 0
100 -12 -47 0
100 12 51 0
100 -12 -51 0
200 12 52 0
200 -12 -52 0
100 12 53 0
100 -12 -53 0
300 12 54 0
300 -12 -54 0
100 12 55 0
100 -12 -55 0
100 12 56 0
100 -12 -56 0
100 12 57 0
100 -12 -57 0
100 12 58 0
100 -12 -58 0
100 12 59 0
100 -12 -59 0
52 13 -32 0
52 -13 32 0
52 13 -33 0
52 -13 33 0
52 13 -38 0
52 -13 38 0
52 13 -40 0
52 -13 40 0
104 13 -42 0
104 -13 42 0
52 13 -45 0
52 -13 45 0
100 13 47 0
100 -13 -47 0
200 13 53 0
200 -13 -53 0
100 13 54 0
100 -13 -54 0
100 13 55 0
100 -13 -55 0
100 13 57 0
100 -13 -57 0
100 13 59 0
100 -13 -59 0
52 14 31 0
52 -14 -31 0
52 14 33 0
52 -14 -33 0
52 14 37 0
52 -14 -37 0
52 14 39 0
52 -14 -39 0
52 14 40 0
52 -14 -40 0
52 14 41 0
52 -14 -41 0
156 14 43 0
156 -14 -43 0
100 14 -48 0
100 -14 48 0
300 14 -52 0
300 -14 52 0
100 14 -53 0
100 -14 53 0
100 14 -54 0
100 -14 54 0
100 14 -55 0
100 -14 55 0
100 14 -58 0
100 -14 58 0
100 14 -59 0
100 -14 59 0
104 15 -32 0
104 -15 32 0
52 15 -34 0
52 -15 34 0
52 15 -35 0
52 -15 35 0
52 15 -40 0
52 -15 40 0
100 15 51 0
100 -15 -51 0
100 15 53 0
100 -15 -53 0
100 15 54 0
100 -15 -54 0
100 15 56 0
100 -15 -56 0
100 15 60 0
100 -15 -60 0
100 16 32 0
100 -16 -32 0
100 16 33 0
100 -16 -33 0
100 16 36 0
100 -16 -36 0
100 16 40 0
100 -16 -40 0
100 16 41 0
100 -16 -41 0
100 16 45 0
100 -16 -45 0
100 16 46 0
100 -16 -46 0
100 16 48 0
100 -16 -48 0
100 16 50 0
100 -16 -50 0
100 16 53 0
100 -16 -53 0
100 16 55 0
100 -16 -55 0
100 16 59 0
100 -16 -59 0
100 17 31 0
100 -17 -31 0
200 17 37 0
200 -17 -37 0
200 17 41 0
200 -17 -41 0
200 17 42 0
200 -17 -42 0
100 17 44 0
100 -17 -44 0
200 17 47 0
200 -17 -47 0
100 17 50 0
100 -17 -50 0
100 17 52 0
100 -17 -52 0
100 17 54 0
100 -17 -54 0
100 17 57 0
100 -17 -57 0
100 17 58 0
100 -17 -58 0
100 17 60 0
100 -17 -60 0
100 18 31 0
100 -18 -31 0
300 18 32 0
300 -18 -32 0
100 18 33 0
100 -18 -33 0
100 18 34 0
100 -18 -34 0
200 18 35 0
200 -18 -35 0
300 18 37 0
300 -18 -37 0
200 18 39 0
200 -18 -39 0
100 18 40 0
100 -18 -40 0
100 18 41 0
100 -18 -41 0
100 18 43 0
100 -18 -43 0
100 18 44 0
100 -18 -44 0
200 18 47 0
200 -18 -47 0
300 18 48 0
300 -18 -48 0
100 18 50 0
100 -18 -50 0
100 18 51 0
100 -18 -51 0
300 18 52 0
300 -18 -52 0
200 18 53 0
200 -18 -53 0
100 18 55 0
100 -18 -55 0
200 18 57 0
200 -18 -57 0
100 18 58 0
100 -18 -58 0
100 18 60 0
100 -18 -60 0
100 19 33 0
100 -19 -33 0
100 19 36 0
100 -19 -36 0
200 19 39 0
200 -19 -39 0
100 19 40 0
100 -19 -40 0
100 19 42 0
100 -19 -42 0
200 19 44 0
200 -19 -44 0
100 19 45 0
100 -19 -45 0
200 19 47 0
200 -19 -47 0
100 19 49 0
100 -19 -49 0
100 19 50 0
100 -19 -50 0
100 19 53 0
100 -19 -53 0
100 19 54 0
100 -19 -54 0
100 19 55 0
100 -19 -55 0
100 19 56 0
100 -19 -56 0
100 19 59 0
100 -19 -59 0
100 20 32 0
100 -20 -32 0
100 20 34 0
100 -20 -34 0
100 20 36 0
100 -20 -36 0
100 20 37 0
100 -20 -37 0
200 20 40 0
200 -20 -40 0
100 20 41 0
100 -20 -41 0
100 20 43 0
100 -20 -43 0
200 20 45 0
200 -20 -45 0
100 20 49 0
100 -20 -49 0
100 20 50 0
100 -20 -50 0
100 20 51 0
100 -20 -51 0
300 20 52 0
300 -20 -52 0
100 20 53 0
100 -20 -53 0
100 20 55 0
100 -20 -55 0
200 20 56 0
200 -20 -56 0
100 21 -31 0
100 -21 31 0
100 21 -33 0
100 -21 33 0
100 21 -34 0
100 -21 34 0
100 21 -36 0
100 -21 36 0
200 21 -39 0
200 -21 39 0
100 21 -40 0
100 -21 40 0
200 21 -41 0
200 -21 41 0
200 21 -44 0
200 -21 44 0
100 21 -49 0
100 -21 49 0
100 21 -50 0
100 -21 50 0
100 21 -51 0
100 -21 51 0
100 21 -52 0
100 -21 52 0
200 21 -53 0
200 -21 53 0
200 21 -54 0
200 -21 54 0
100 21 -56 0
100 -21 56 0
100 21 -57 0
100 -21 57 0
100 21 -59 0
100 -21 59 0
300 22 -32 0
300 -22 32 0
100 22 -33 0
100 -22 33 0
200 22 -35 0
200 -22 35 0
200 22 -39 0
200 -22 39 0
100 22 -40 0
100 -22 40 0
100 22 -41 0
100 -22 41 0
100 22 -43 0
100 -22 43 0
100 22 -45 0
100 -22 45 0
100 22 -47 0
100 -22 47 0
200 22 -48 0
200 -22 48 0
100 22 -50 0
100 -22 50 0
100 22 -52 0
100 -22 52 0
100 22 -53 0
100 -22 53 0
100 22 -54 0
100 -22 54 0
200 22 -56 0
200 -22 56 0
100 22 -58 0
100 -22 58 0
200 22 -60 0
200 -22 60 0
100 23 31 0
100 -23 -31 0
100 23 33 0
100 -23 -33 0
100 23 34 0
100 -23 -34 0
100 23 35 0
100 -23 -35 0
100 23 36 0
100 -23 -36 0
100 23 38 0
100 -23 -38 0
200 23 40 0
200 -23 -40 0
200 23 42 0
200 -23 -42 0
100 23 52 0
100 -23 -52 0
100 23 53 0
100 -23 -53 0
200 23 54 0
200 -23 -54 0
400 23 58 0
400 -23 -58 0
200 23 60 0
200 -23 -60 0
100 24 32 0
100 -24 -32 0
100 24 34 0
100 -24 -34 0
100 24 37 0
100 -24 -37 0
100 24 38 0
100 -24 -38 0
100 24 40 0
100 -24 -40 0
400 24 43 0
400 -24 -43 0
100 24 47 0
100 -24 -47 0
100 24 51 0
100 -24 -51 0
100 24 53 0
100 -24 -53 0
100 24 55 0
100 -24 -55 0
100 24 57 0
100 -24 -57 0
400 24 59 0
400 -24 -59 0
200 25 -33 0
200 -25 33 0
100 25 -36 0
100 -25 36 0
200 25 -37 0
200 -25 37 0
100 25 -40 0
100 -25 40 0
200 25 -41 0
200 -25 41 0
100 25 -43 0
100 -25 43 0
100 25 -47 0
100 -25 47 0
100 25 -48 0
100 -25 48 0
100 25 -50 0
100 -25 50 0
200 25 -51 0
200 -25 51 0
100 25 -55 0
100 -25 55 0
100 25 -56 0
100 -25 56 0
100 25 -58 0
100 -25 58 0
100 25 -59 0
100 -25 59 0
100 26 -31 0
100 -26 31 0
300 26 -33 0
300 -26 33 0
100 26 -35 0
100 -26 35 0
100 26 -37 0
100 -26 37 0
100 26 -38 0
100 -26 38 0
100 26 -41 0
100 -26 41 0
100 26 -42 0
100 -26 42 0
100 26 -44 0
100 -26 44 0
100 26 -49 0
100 -26 49 0
100 26 -51 0
100 -26 51 0
300 26 -52 0
300 -26 52 0
100 26 -53 0
100 -26 53 0
200 26 -55 0
200 -26 55 0
100 26 -57 0
100 -26 57 0
100 26 -60 0
100 -26 60 0
100 27 33 0
100 -27 -33 0
100 27 34 0
100 -27 -34 0
100 27 36 0
100 -27 -36 0
200 27 38 0
200 -27 -38 0
100 27 40 0
100 -27 -40 0
200 27 41 0
200 -27 -41 0
200 27 42 0
200 -27 -42 0
100 27 43 0
100 -27 -43 0
200 27 45 0
200 -27 -45 0
200 27 46 0
200 -27 -46 0
100 27 47 0
100 -27 -47 0
200 27 49 0
200 -27 -49 0
100 27 53 0
100 -27 -53 0
200 27 54 0
200 -27 -54 0
100 27 55 0
100 -27 -55 0
100 27 57 0
100 -27 -57 0
100 27 58 0
100 -27 -58 0
200 27 59 0
200 -27 -59 0
100 28 32 0
100 -28 -32 0
100 28 35 0
100 -28 -35 0
100 28 39 0
100 -28 -39 0
100 28 41 0
100 -28 -41 0
200 28 44 0
200 -28 -44 0
200 28 46 0
200 -28 -46 0
100 28 47 0
100 -28 -47 0
100 28 48 0
100 -28 -48 0
100 28 51 0
100 -28 -51 0
100 28 58 0
100 -28 -58 0
200 29 31 0
200 -29 -31 0
200 29 32 0
200 -29 -32 0
100 29 36 0
100 -29 -36 0
200 29 38 0
200 -29 -38 0
100 29 39 0
100 -29 -39 0
100 29 40 0
100 -29 -40 0
100 29 43 0
100 -29 -43 0
100 29 47 0
100 -29 -47 0
100 29 49 0
100 -29 -49 0
200 29 53 0
200 -29 -53 0
100 29 55 0
100 -29 -55 0
200 29 56 0
200 -29 -56 0
200 29 57 0
200 -29 -57 0
100 29 60 0
100 -29 -60 0
200 30 -32 0
200 -30 32 0
100 30 -33 0
100 -30 33 0
100 30 -36 0
100 -30 36 0
100 30 -39 0
100 -30 39 0
300 30 -42 0
300 -30 42 0
100 30 -44 0
100 -30 44 0
100 30 -45 0
100 -30 45 0
200 30 -46 0
200 -30 46 0
100 30 -49 0
100 -30 49 0
100 30 -50 0
100 -30 50 0
300 30 -56 0
300 -30 56 0
100 30 -57 0
100 -30 57 0
200 30 -58 0
200 -30 58 0
